5 5
3 48 4 72 2 43 1 35 0 5
3 31 4 31 1 8 0 6 2 87
0 53 3 80 4 44 2 49 1 8
1 64 4 4 3 32 0 53 2 67
2 63 4 80 0 60 3 98 1 77
-1
0 3 5
0 2 3 4 5
0 2 5
0 1 3 4 5
0 1 3 5
-2
194 225
74 93 111 232
193 244
68 158 224 259
83 255 495

386 6
10 8 22 18 4
15 7 3 24 14
20 9 2 19 13
5 0 11 17 23
6 21 16 1 12
